unsat
(:binary-propagations  45
 :conflicts            1
 :final-checks         1
 :max-generation       1
 :max-memory           25.26
 :memory               21.48
 :mk-bool-var          1344
 :mk-clause            400
 :mk-clause-binary     1336
 :num-allocs           27167784
 :num-checks           1
 :propagations         45
 :quant-instantiations 293
 :restarts             1
 :rlimit-count         281233
 :time                 0.05)
